(declare-fun var0 () String)
(assert (RegexIn var0 (RegexConcat (RegexPlus (RegexUnion (Str2Reg "$") (Str2Reg "%%"))) (RegexConcat (RegexStar (RegexStar (Str2Reg "###"))) (RegexConcat (RegexPlus (RegexPlus (Str2Reg "\"\"\""))) (RegexConcat (RegexPlus (RegexStar (Str2Reg "!!!"))) (RegexConcat (RegexUnion (RegexStar (Str2Reg "XXX")) (RegexUnion (Str2Reg "YY") (Str2Reg "ZZZ"))) (RegexConcat (RegexPlus (RegexPlus (Str2Reg "WW"))) (RegexConcat (RegexPlus (RegexPlus (Str2Reg "VVV"))) (RegexConcat (RegexPlus (RegexUnion (Str2Reg "TTT") (Str2Reg "UU"))) (RegexConcat (RegexPlus (RegexPlus (Str2Reg "SSS"))) (RegexConcat (RegexStar (RegexUnion (Str2Reg "Q") (Str2Reg "RR"))) (RegexConcat (RegexPlus (RegexStar (Str2Reg "PPP"))) (RegexConcat (RegexPlus (RegexPlus (Str2Reg "OOO"))) (RegexConcat (RegexStar (RegexUnion (Str2Reg "M") (Str2Reg "NN"))) (RegexConcat (RegexPlus (RegexStar (Str2Reg "L"))) (RegexConcat (RegexPlus (RegexPlus (Str2Reg "KKK"))) (RegexConcat (RegexUnion (RegexPlus (Str2Reg "II")) (RegexStar (Str2Reg "J"))) (RegexConcat (RegexStar (RegexStar (Str2Reg "H"))) (RegexConcat (RegexStar (RegexUnion (Str2Reg "FF") (Str2Reg "G"))) (RegexConcat (RegexUnion (RegexPlus (Str2Reg "D")) (RegexStar (Str2Reg "EEE"))) (RegexConcat (RegexPlus (RegexUnion (Str2Reg "BBB") (Str2Reg "CC"))) (RegexConcat (RegexStar (RegexUnion (Str2Reg "z") (Str2Reg "AAA"))) (RegexConcat (RegexUnion (RegexStar (Str2Reg "xxx")) (RegexPlus (Str2Reg "y"))) (RegexConcat (RegexStar (RegexStar (Str2Reg "www"))) (RegexConcat (RegexPlus (RegexStar (Str2Reg "vv"))) (RegexConcat (RegexStar (RegexUnion (Str2Reg "ttt") (Str2Reg "uu"))) (RegexConcat (RegexStar (RegexStar (Str2Reg "s"))) (RegexConcat (RegexStar (RegexPlus (Str2Reg "r"))) (RegexConcat (RegexPlus (RegexStar (Str2Reg "qq"))) (RegexConcat (RegexPlus (RegexPlus (Str2Reg "pp"))) (RegexConcat (RegexUnion (RegexStar (Str2Reg "nnn")) (RegexPlus (Str2Reg "oo"))) (RegexConcat (RegexStar (RegexStar (Str2Reg "mm"))) (RegexConcat (RegexUnion (RegexPlus (Str2Reg "k")) (RegexStar (Str2Reg "ll"))) (RegexConcat (RegexUnion (RegexUnion (Str2Reg "h") (Str2Reg "i")) (RegexStar (Str2Reg "jj"))) (RegexConcat (RegexStar (RegexPlus (Str2Reg "gg"))) (RegexConcat (RegexStar (RegexPlus (Str2Reg "ff"))) (RegexConcat (RegexPlus (RegexPlus (Str2Reg "eee"))) (RegexConcat (RegexUnion (RegexPlus (Str2Reg "ccc")) (RegexStar (Str2Reg "d"))) (RegexConcat (RegexPlus (RegexUnion (Str2Reg "aa") (Str2Reg "bbb"))) (RegexConcat (RegexStar (RegexStar (Str2Reg "99"))) (RegexConcat (RegexUnion (RegexUnion (Str2Reg "555") (Str2Reg "666")) (RegexUnion (Str2Reg "77") (Str2Reg "888"))) (RegexConcat (RegexUnion (RegexPlus (Str2Reg "222")) (RegexUnion (Str2Reg "33") (Str2Reg "4"))) (RegexConcat (RegexPlus (RegexPlus (Str2Reg "111"))) (RegexStar (RegexPlus (Str2Reg "000")))))))))))))))))))))))))))))))))))))))))))))))
(check-sat)